 Code  1433
 Dimension, Fixed Cost
   100        3000
 Facility, Client, Transportation Cost
     1        3           1
     1        4           3
     1        6           4
     1       35           0
     1       37           2
     1       39           1
     1       50           4
     1       53           1
     1       55           3
     1       59           1
     2        5           3
     2       16           2
     2       20           4
     2       29           3
     2       31           3
     2       47           3
     2       54           4
     2       72           4
     2       73           1
     2       78           2
     3       10           3
     3       16           3
     3       29           4
     3       45           3
     3       59           3
     3       70           2
     3       81           4
     3       84           3
     3       86           0
     3       88           1
     4        5           0
     4       10           0
     4       12           2
     4       27           1
     4       40           3
     4       41           3
     4       47           3
     4       48           1
     4       49           2
     4       66           0
     5        3           4
     5        8           1
     5       12           0
     5       16           1
     5       18           2
     5       67           4
     5       72           0
     5       79           2
     5       84           0
     5       87           3
     6        4           4
     6        9           2
     6       11           0
     6       35           2
     6       40           2
     6       45           4
     6       57           2
     6       58           1
     6       68           1
     6       77           4
     7        4           4
     7       27           2
     7       34           4
     7       35           1
     7       48           0
     7       57           2
     7       58           4
     7       83           3
     7       84           3
     7       93           0
     8        2           3
     8        6           1
     8       13           1
     8       18           4
     8       21           3
     8       31           2
     8       38           4
     8       52           0
     8       53           4
     8       57           2
     9       14           2
     9       39           4
     9       54           4
     9       64           4
     9       65           1
     9       74           3
     9       81           3
     9       95           3
     9       96           0
     9       99           3
    10       12           4
    10       15           3
    10       24           3
    10       26           0
    10       30           1
    10       32           4
    10       70           2
    10       71           3
    10       73           0
    10       74           2
    11       25           0
    11       26           0
    11       29           2
    11       45           0
    11       49           4
    11       76           0
    11       78           0
    11       94           2
    11       98           2
    11      100           1
    12        9           3
    12       21           4
    12       46           3
    12       65           1
    12       75           0
    12       92           4
    12       93           3
    12       94           1
    12       96           2
    12       97           0
    13        7           4
    13       15           3
    13       16           1
    13       31           2
    13       51           4
    13       52           3
    13       53           2
    13       56           2
    13       61           3
    13       83           4
    14        5           3
    14       21           3
    14       40           0
    14       41           1
    14       44           3
    14       52           2
    14       82           1
    14       88           2
    14       91           0
    14       95           0
    15        8           4
    15       13           0
    15       35           4
    15       38           0
    15       44           0
    15       47           3
    15       51           3
    15       76           3
    15       84           4
    15       97           3
    16        4           0
    16        9           4
    16       26           2
    16       33           4
    16       48           4
    16       67           3
    16       70           2
    16       73           2
    16       74           0
    16       79           4
    17       15           2
    17       26           4
    17       38           1
    17       48           3
    17       57           2
    17       60           0
    17       65           3
    17       67           0
    17       72           3
    17       77           4
    18        5           3
    18       22           0
    18       27           4
    18       32           0
    18       44           0
    18       67           2
    18       73           3
    18       78           1
    18       81           1
    18       82           3
    19        2           0
    19       11           4
    19       19           3
    19       21           2
    19       22           0
    19       31           0
    19       52           0
    19       54           0
    19       60           3
    19       63           3
    20        3           0
    20       16           0
    20       35           2
    20       47           2
    20       52           4
    20       58           0
    20       69           2
    20       74           3
    20       88           3
    20       92           3
    21        5           4
    21       12           1
    21       16           0
    21       39           0
    21       40           4
    21       62           1
    21       77           0
    21       87           1
    21       90           3
    21       95           4
    22        1           2
    22        4           3
    22        6           3
    22       20           4
    22       33           0
    22       51           4
    22       61           1
    22       70           2
    22       73           2
    22       80           4
    23       11           0
    23       37           1
    23       40           3
    23       62           3
    23       69           0
    23       75           2
    23       79           2
    23       92           3
    23       96           3
    23       97           4
    24        8           3
    24       16           1
    24       43           4
    24       55           1
    24       68           2
    24       85           3
    24       87           0
    24       88           2
    24       90           2
    24       93           2
    25        5           2
    25        7           1
    25       30           0
    25       45           2
    25       46           2
    25       49           4
    25       67           1
    25       69           1
    25       85           1
    25       88           0
    26        6           4
    26       14           2
    26       34           1
    26       40           1
    26       46           2
    26       51           2
    26       61           3
    26       81           4
    26       82           4
    26       89           3
    27       25           3
    27       36           0
    27       56           1
    27       62           3
    27       71           4
    27       76           0
    27       87           0
    27       91           2
    27       92           0
    27       94           3
    28       13           2
    28       22           4
    28       25           4
    28       42           4
    28       49           4
    28       50           0
    28       62           1
    28       65           4
    28       66           0
    28       67           0
    29        1           1
    29       14           1
    29       23           0
    29       30           4
    29       34           1
    29       43           1
    29       56           2
    29       68           1
    29       78           4
    29       81           2
    30       45           2
    30       80           2
    30       82           0
    30       84           0
    30       89           1
    30       92           3
    30       94           3
    30       98           3
    30       99           4
    30      100           1
    31       13           4
    31       18           1
    31       21           2
    31       26           3
    31       32           4
    31       33           1
    31       39           4
    31       63           3
    31       74           3
    31       78           4
    32        3           4
    32        8           3
    32       23           4
    32       29           1
    32       41           2
    32       53           0
    32       62           0
    32       65           2
    32       71           2
    32       72           2
    33        7           3
    33       18           2
    33       20           0
    33       34           0
    33       42           0
    33       64           2
    33       83           4
    33       91           2
    33       93           1
    33       94           0
    34        8           2
    34       24           2
    34       26           2
    34       27           2
    34       30           3
    34       34           0
    34       39           2
    34       61           1
    34       67           3
    34       71           1
    35       19           0
    35       25           2
    35       27           4
    35       43           0
    35       47           3
    35       79           4
    35       84           1
    35       88           3
    35       90           3
    35       95           1
    36        3           1
    36        6           2
    36       12           3
    36       20           4
    36       24           2
    36       42           2
    36       51           3
    36       54           2
    36       57           1
    36       66           4
    37        1           0
    37       17           1
    37       38           0
    37       48           4
    37       49           1
    37       56           1
    37       58           4
    37       60           0
    37       61           0
    37       69           4
    38        8           0
    38       16           4
    38       36           4
    38       56           3
    38       69           4
    38       71           0
    38       75           0
    38       83           4
    38       84           2
    38       91           4
    39        7           2
    39       13           2
    39       16           0
    39       50           3
    39       55           0
    39       68           1
    39       72           0
    39       84           3
    39       89           0
    39       93           1
    40       18           0
    40       35           0
    40       36           3
    40       41           2
    40       46           4
    40       50           2
    40       62           3
    40       74           3
    40       75           4
    40       80           4
    41        5           4
    41       15           2
    41       22           4
    41       30           4
    41       32           0
    41       36           3
    41       37           1
    41       38           0
    41       39           0
    41       72           1
    42        1           3
    42        3           4
    42        4           0
    42       17           2
    42       18           0
    42       22           1
    42       43           0
    42       51           2
    42       53           3
    42       71           3
    43       14           2
    43       15           1
    43       23           1
    43       31           3
    43       35           2
    43       38           3
    43       40           4
    43       47           3
    43       66           3
    43       76           1
    44       11           3
    44       17           4
    44       26           1
    44       28           1
    44       30           2
    44       33           1
    44       44           0
    44       53           4
    44       58           3
    44       70           1
    45        9           0
    45       18           2
    45       25           2
    45       31           3
    45       44           3
    45       55           2
    45       57           3
    45       73           2
    45       82           3
    45       85           0
    46        6           4
    46       14           0
    46       24           2
    46       30           2
    46       37           1
    46       38           0
    46       44           0
    46       48           2
    46       50           0
    46       68           3
    47       11           1
    47       15           4
    47       20           4
    47       25           3
    47       37           1
    47       46           4
    47       50           2
    47       59           3
    47       60           1
    47       88           3
    48       29           0
    48       50           1
    48       63           2
    48       66           0
    48       86           2
    48       91           4
    48       92           3
    48       94           3
    48       98           4
    48       99           3
    49        7           0
    49       20           4
    49       30           3
    49       33           2
    49       35           4
    49       36           0
    49       37           3
    49       42           3
    49       52           0
    49       76           3
    50        7           1
    50       24           4
    50       28           4
    50       39           3
    50       56           0
    50       65           2
    50       69           0
    50       80           4
    50       85           0
    50       86           4
    51        8           4
    51       27           4
    51       28           3
    51       36           1
    51       53           1
    51       55           1
    51       67           0
    51       79           3
    51       80           3
    51       82           4
    52        6           0
    52       40           4
    52       48           2
    52       49           3
    52       58           4
    52       69           3
    52       77           3
    52       87           1
    52       92           2
    52       94           2
    53       17           4
    53       27           0
    53       31           2
    53       39           0
    53       46           2
    53       77           3
    53       79           0
    53       80           1
    53       82           0
    53       86           0
    54       13           2
    54       50           2
    54       63           4
    54       75           4
    54       79           1
    54       91           2
    54       95           4
    54       97           3
    54       99           2
    54      100           3
    55        2           2
    55       14           0
    55       19           3
    55       26           4
    55       64           1
    55       71           2
    55       81           1
    55       83           3
    55       87           1
    55       90           4
    56        1           0
    56        7           4
    56       59           4
    56       66           4
    56       67           3
    56       68           4
    56       69           3
    56       74           1
    56       75           3
    56       77           4
    57        2           4
    57       15           1
    57       24           3
    57       33           1
    57       52           1
    57       55           1
    57       59           0
    57       60           0
    57       61           1
    57       64           4
    58       14           0
    58       17           3
    58       22           4
    58       23           1
    58       32           0
    58       43           1
    58       47           4
    58       60           4
    58       61           2
    58       65           1
    59        2           2
    59       24           4
    59       32           2
    59       38           1
    59       48           3
    59       52           3
    59       60           1
    59       64           4
    59       70           2
    59       71           4
    60       18           1
    60       19           2
    60       30           1
    60       43           1
    60       49           4
    60       50           1
    60       56           3
    60       59           4
    60       62           4
    60       72           4
    61       12           2
    61       27           2
    61       35           0
    61       41           0
    61       45           2
    61       80           3
    61       85           0
    61       87           2
    61       90           0
    61       93           3
    62        3           4
    62        4           2
    62       21           4
    62       44           0
    62       54           4
    62       61           0
    62       62           0
    62       72           2
    62       80           1
    62       85           2
    63        1           2
    63       10           3
    63       14           0
    63       21           2
    63       42           3
    63       55           2
    63       58           0
    63       75           3
    63       89           1
    63       96           0
    64        7           3
    64       11           0
    64       19           3
    64       23           2
    64       28           3
    64       42           1
    64       48           3
    64       56           1
    64       64           3
    64       69           3
    65        9           3
    65       10           3
    65       19           3
    65       24           0
    65       44           3
    65       54           3
    65       62           1
    65       78           0
    65       85           0
    65       86           0
    66        1           1
    66        2           1
    66       10           0
    66       20           2
    66       24           0
    66       28           1
    66       45           4
    66       51           1
    66       58           3
    66       60           3
    67        2           2
    67       19           1
    67       46           4
    67       57           1
    67       61           3
    67       89           4
    67       92           1
    67       93           0
    67       95           3
    67       98           1
    68        3           0
    68       10           3
    68       12           2
    68       15           3
    68       25           3
    68       31           0
    68       32           3
    68       64           0
    68       70           0
    68       73           4
    69       21           4
    69       22           0
    69       53           3
    69       58           4
    69       59           1
    69       77           2
    69       84           1
    69       88           0
    69       94           1
    69       95           4
    70       34           1
    70       36           0
    70       60           0
    70       77           2
    70       85           1
    70       87           4
    70       88           0
    70       91           3
    70       93           4
    70       97           1
    71       14           1
    71       23           2
    71       28           0
    71       37           3
    71       68           3
    71       73           2
    71       76           3
    71       83           2
    71       95           1
    71       96           1
    72        3           0
    72       22           4
    72       31           2
    72       34           1
    72       37           2
    72       69           0
    72       86           3
    72       91           3
    72       92           0
    72       97           0
    73        1           0
    73        2           1
    73       13           1
    73       17           1
    73       24           3
    73       26           3
    73       32           3
    73       54           1
    73       64           2
    73       66           3
    74        8           3
    74       25           3
    74       28           1
    74       32           0
    74       40           2
    74       41           1
    74       47           4
    74       56           3
    74       65           2
    74       80           1
    75        2           0
    75       40           4
    75       86           2
    75       93           3
    75       95           4
    75       96           2
    75       97           3
    75       98           4
    75       99           1
    75      100           2
    76        7           3
    76       20           1
    76       35           3
    76       76           2
    76       77           1
    76       78           0
    76       81           2
    76       90           2
    76       96           0
    76       98           0
    77       11           3
    77       19           0
    77       21           3
    77       41           3
    77       46           1
    77       47           1
    77       55           3
    77       57           1
    77       99           4
    77      100           3
    78        9           2
    78       13           0
    78       17           2
    78       32           4
    78       34           4
    78       59           3
    78       65           0
    78       71           1
    78       73           3
    78       77           1
    79       38           1
    79       42           2
    79       63           1
    79       66           3
    79       94           1
    79       96           0
    79       97           3
    79       98           1
    79       99           4
    79      100           2
    80       11           2
    80       12           2
    80       29           0
    80       31           0
    80       43           3
    80       51           0
    80       74           4
    80       91           1
    80       94           0
    80      100           1
    81        1           2
    81        5           2
    81        9           2
    81       29           2
    81       33           2
    81       36           0
    81       42           2
    81       70           1
    81       74           3
    81       76           3
    82       48           4
    82       57           0
    82       61           4
    82       76           1
    82       83           2
    82       84           0
    82       87           2
    82       88           0
    82       93           0
    82       96           2
    83       18           1
    83       20           1
    83       23           1
    83       28           2
    83       33           1
    83       39           2
    83       66           1
    83       75           2
    83       78           3
    83       79           3
    84        7           4
    84       10           0
    84       11           4
    84       13           0
    84       49           1
    84       51           4
    84       63           1
    84       64           3
    84       72           2
    84       73           1
    85        6           4
    85        8           2
    85       16           1
    85       19           0
    85       23           4
    85       36           3
    85       43           1
    85       46           1
    85       54           0
    85       64           3
    86       17           2
    86       39           1
    86       45           3
    86       53           2
    86       55           0
    86       72           3
    86       89           2
    86       90           4
    86       97           4
    86       98           4
    87       13           2
    87       55           2
    87       63           4
    87       83           3
    87       85           1
    87       90           3
    87       92           4
    87       98           0
    87       99           1
    87      100           1
    88       18           0
    88       23           0
    88       25           0
    88       37           4
    88       44           1
    88       47           4
    88       63           1
    88       66           3
    88       68           3
    88       70           4
    89        9           3
    89       11           0
    89       17           1
    89       20           3
    89       28           4
    89       41           4
    89       70           3
    89       78           0
    89       80           3
    89       83           1
    90       10           3
    90       25           3
    90       38           3
    90       86           3
    90       89           3
    90       90           0
    90       95           1
    90       98           1
    90       99           1
    90      100           3
    91        4           1
    91        5           1
    91       27           2
    91       29           0
    91       41           3
    91       43           3
    91       44           2
    91       45           3
    91       51           1
    91       60           3
    92        2           2
    92        8           2
    92       23           1
    92       26           2
    92       29           2
    92       52           1
    92       54           0
    92       62           0
    92       65           1
    92       74           3
    93        1           3
    93        3           2
    93       10           3
    93       12           3
    93       22           2
    93       57           0
    93       81           3
    93       82           0
    93       86           4
    93       87           4
    94       12           0
    94       21           2
    94       42           2
    94       54           2
    94       59           3
    94       71           3
    94       75           4
    94       76           1
    94       86           2
    94       89           3
    95       14           2
    95       19           3
    95       43           0
    95       45           4
    95       63           4
    95       81           1
    95       90           2
    95       91           4
    95       96           1
    95       99           1
    96        4           1
    96        9           3
    96       10           1
    96       41           3
    96       42           2
    96       79           2
    96       82           0
    96       89           0
    96       97           0
    96      100           3
    97        5           4
    97       17           2
    97       34           3
    97       53           4
    97       56           0
    97       63           2
    97       68           0
    97       78           2
    97       79           2
    97       85           2
    98       15           1
    98       22           4
    98       28           0
    98       29           2
    98       33           3
    98       36           2
    98       37           4
    98       49           1
    98       50           1
    98       52           4
    99        4           2
    99        6           2
    99        9           4
    99       15           2
    99       27           4
    99       30           0
    99       33           0
    99       46           3
    99       58           0
    99       67           3
   100        6           2
   100       34           0
   100       49           3
   100       59           1
   100       68           4
   100       75           1
   100       81           1
   100       82           1
   100       83           3
   100       89           0
